# Initialization
units			real
dimension		3
processors		* * *
boundary		p p p
atom_style		full
pair_style		lj/cut 10.0
bond_style		harmonic
angle_style 	harmonic
read_data		after_cross_linking_correct.data

#output 

# going from 0-70 in steps of 10

thermo			100
thermo_style	custom step temp vol density


# npt for 150ps
fix			1 all npt temp 273 273 1000 iso 1 1 100
run			150000
unfix			1

fix			1 all npt temp 283 283 1000 iso 1 1 100
run			150000
unfix			1

fix			1 all npt temp 293 293 1000 iso 1 1 100
run			150000
unfix			1

fix			1 all npt temp 303 303 1000 iso 1 1 100
run			150000
unfix			1

fix			1 all npt temp 313 313 100 iso 1 1 100
run			150000
unfix			1
fix			1 all npt temp 323 323 100 iso 1 1 100
run			150000
unfix			1
fix			1 all npt temp 333 333 100 iso 1 1 100
run			150000
unfix			1
fix			1 all npt temp 343 343 100 iso 1 1 100
run			150000
unfix			1
#final 
write_data		thermal_expansion_before_glass_transition.data

#parameter
neighbor		2.0 bin