# Initialization
units			real
dimension		3
processors		* * *
boundary		p p p
atom_style		full
pair_style		lj/cut/coul/cut 10.0
bond_style		harmonic
angle_style 	harmonic
dihedral_style harmonic


read_data		PVA_GA_NC_OXY_LARGE_DIHEDRALS_INPUT_WITH_CHARGE_AFTER_LINKING_WITH_WATER.data 
group 1 type 23 24
delete_atoms group 1
run 0
#final 
write_data		PVA_GA_NC_OXY_LARGE_DIHEDRALS_INPUT_WITH_CHARGE_AFTER_LINKING.data 

#parameter
neighbor		2.0 bin